Minimize
  - 9 y_0 - 8 y_1 - 10 y_2 - 9 y_3 - 19 y_4 - 7 y_5 - 8 y_6 - 17 y_7
   - 19 y_8 + 42 x_0_4 + 10 x_0_5 + 35 x_0_7 + 43 x_1_4 + 17 x_1_6
   + 35 x_1_7 + 43 x_1_8 + 61 x_2_0 + 86 x_2_4 + 29 x_3_5 + 39 x_3_7
   + 45 x_3_8 + 52 x_4_5 + 47 x_4_6 + 9 x_4_7 + 13 x_4_8 + 76 x_4_9
   + 28 x_5_9 + 40 x_6_7 + 33 x_6_9 + 13 x_7_8 + 68 x_7_9 + 77 x_8_9
   + 77 x_8_9 + 77 x_8_9 + 77 x_8_9 + 77 x_8_9 + 77 x_8_9 + 77 x_8_9
   + 77 x_8_9 + 77 x_8_9 + 77 x_8_9 + 77 x_8_9 + 77 x_8_9 + 77 x_8_9
   + 77 x_8_9 + 77 x_8_9 + 77 x_8_9 + 77 x_8_9 + 77 x_8_9 + 77 x_8_9
   + 77 x_8_9 + 77 x_8_9 + 77 x_8_9 + 77 x_8_9 + 77 x_8_9 + 77 x_8_9
   + 77 x_8_9 + 77 x_8_9 + 77 x_8_9 + 77 x_8_9 + 77 x_8_9 + 77 x_8_9
   + 77 x_8_9 + 77 x_8_9 + 77 x_8_9 + 77 x_8_9 + 77 x_8_9 + 77 x_8_9
   + 77 x_8_9 + 77 x_8_9 + 77 x_8_9 + 77 x_8_9 + 77 x_8_9 + 77 x_8_9
   + 77 x_8_9 + 77 x_8_9 + 77 x_8_9 + 77 x_8_9 + 77 x_8_9 + 77 x_8_9
   + 77 x_8_9 + 77 x_8_9 + 77 x_8_9 + 77 x_8_9 + 77 x_8_9 + 77 x_8_9
   + 77 x_8_9 + 77 x_8_9 + 77 x_8_9 + 77 x_8_9 + 77 x_8_9 + 77 x_8_9
   + 77 x_8_9 + 77 x_8_9 + 77 x_8_9 + 77 x_8_9 + 77 x_8_9 + 77 x_8_9
   + 77 x_8_9 + 77 x_8_9 + 77 x_8_9 + 77 x_8_9 + 77 x_8_9 + 77 x_8_9
   + 77 x_8_9 + 77 x_8_9 + 77 x_8_9 + 77 x_8_9 + 77 x_8_9 + 77 x_8_9
   + 77 x_8_9 + 77 x_8_9 + 77 x_8_9 + 77 x_8_9 + 77 x_8_9 + 77 x_8_9
   + 77 x_8_9 + 77 x_8_9 + 77 x_8_9 + 77 x_8_9 + 77 x_8_9 + 77 x_8_9
   + 77 x_8_9 + 77 x_8_9 + 77 x_8_9 + 77 x_8_9 + 77 x_8_9 + 77 x_8_9
   + 77 x_8_9 + 77 x_8_9 + 77 x_8_9 + 77 x_8_9 + 77 x_8_9 + 77 x_8_9
   + 77 x_8_9 + 77 x_8_9 + 77 x_8_9 + 77 x_8_9 + 77 x_8_9 + 77 x_8_9
   + 77 x_8_9 + 77 x_8_9 + 77 x_8_9 + 77 x_8_9 + 77 x_8_9 + 77 x_8_9
   + 77 x_8_9 + 77 x_8_9 + 77 x_8_9 + 77 x_8_9 + 77 x_8_9 + 77 x_8_9
   + 77 x_8_9 + 77 x_8_9 + 77 x_8_9 + 77 x_8_9 + 77 x_8_9 + 77 x_8_9
   + 77 x_8_9 + 77 x_8_9 + 77 x_8_9 + 77 x_8_9 + 77 x_8_9 + 77 x_8_9
   + 77 x_8_9 + 77 x_8_9 + 77 x_8_9 + 77 x_8_9 + 77 x_8_9 + 77 x_8_9
   + 77 x_8_9 + 77 x_8_9 + 77 x_8_9 + 77 x_8_9 + 77 x_8_9 + 77 x_8_9
   + 77 x_8_9 + 77 x_8_9 + 77 x_8_9 + 77 x_8_9 + 77 x_8_9 + 77 x_8_9
   + 77 x_8_9 + 77 x_8_9 + 77 x_8_9 + 77 x_8_9 + 77 x_8_9 + 77 x_8_9
   + 77 x_8_9 + 77 x_8_9 + 77 x_8_9 + 77 x_8_9 + 77 x_8_9 + 77 x_8_9
   + 77 x_8_9 + 77 x_8_9 + 77 x_8_9 + 77 x_8_9 + 77 x_8_9 + 77 x_8_9
   + 77 x_8_9 + 77 x_8_9 + 77 x_8_9 + 77 x_8_9 + 77 x_8_9 + 77 x_8_9
   + 77 x_8_9 + 77 x_8_9 + 77 x_8_9 + 77 x_8_9 + 77 x_8_9 + 77 x_8_9
   + 77 x_8_9 + 77 x_8_9 + 77 x_8_9 + 77 x_8_9 + 77 x_8_9 + 77 x_8_9
   + 77 x_8_9 + 77 x_8_9 + 77 x_8_9 + 77 x_8_9 + 77 x_8_9 + 77 x_8_9
   + 77 x_8_9 + 77 x_8_9 + 77 x_8_9 + 77 x_8_9 + 77 x_8_9 + 77 x_8_9
   + 77 x_8_9 + 77 x_8_9 + 77 x_8_9 + 77 x_8_9 + 77 x_8_9 + 77 x_8_9
   + 77 x_8_9 + 77 x_8_9 + 77 x_8_9 + 77 x_8_9 + 77 x_8_9 + 77 x_8_9
   + 106 Constant
Subject To
 c_0: y_0 = 1
 c_1_0: y_0 + y_5 + y_6 >= 1
 c_1_1: y_1 >= 1
 c_1_2: y_2 >= 1
 c_1_3: y_3 >= 1
 c_1_4: y_4 + y_7 >= 1
 c_1_5: y_0 + y_5 + y_6 >= 1
 c_1_6: y_0 + y_5 + y_6 >= 1
 c_1_7: y_4 + y_7 >= 1
 c_1_8: y_8 >= 1
 c_1_9: y_9 >= 1
 c_2_0: - 2 y_0 + x_0_4 + x_0_5 + x_0_7 + x_2_0 = 0
 c_2_1: - 2 y_1 + x_1_4 + x_1_6 + x_1_7 + x_1_8 = 0
 c_2_2: - 2 y_2 + x_2_0 + x_2_4 = 0
 c_2_3: - 2 y_3 + x_3_5 + x_3_7 + x_3_8 = 0
 c_2_4: - 2 y_4 + x_0_4 + x_1_4 + x_2_4 + x_4_5 + x_4_6 + x_4_7 + x_4_8
   + x_4_9 = 0
 c_2_5: - 2 y_5 + x_0_5 + x_3_5 + x_4_5 + x_5_9 = 0
 c_2_6: - 2 y_6 + x_1_6 + x_4_6 + x_6_7 + x_6_9 = 0
 c_2_7: - 2 y_7 + x_0_7 + x_1_7 + x_3_7 + x_4_7 + x_6_7 + x_7_8 + x_7_9
   = 0
 c_2_8: - 2 y_8 + x_1_8 + x_3_8 + x_4_8 + x_7_8 + 211 x_8_9 = 0
 c_2_9: - 2 y_9 + x_4_9 + x_5_9 + x_6_9 + x_7_9 + 211 x_8_9 = 0
Bounds
 Constant = 1
Binaries
 y_0 y_1 y_2 y_3 y_4 y_5 y_6 y_7 y_8 y_9 x_0_4 x_0_5 x_0_7 x_1_4 x_1_6
 x_1_7 x_1_8 x_2_0 x_2_4 x_3_5 x_3_7 x_3_8 x_4_5 x_4_6 x_4_7 x_4_8 x_4_9
 x_5_9 x_6_7 x_6_9 x_7_8 x_7_9 x_8_9 x_8_9 x_8_9 x_8_9 x_8_9 x_8_9 x_8_9
 x_8_9 x_8_9 x_8_9 x_8_9 x_8_9 x_8_9 x_8_9 x_8_9 x_8_9 x_8_9 x_8_9 x_8_9
 x_8_9 x_8_9 x_8_9 x_8_9 x_8_9 x_8_9 x_8_9 x_8_9 x_8_9 x_8_9 x_8_9 x_8_9
 x_8_9 x_8_9 x_8_9 x_8_9 x_8_9 x_8_9 x_8_9 x_8_9 x_8_9 x_8_9 x_8_9 x_8_9
 x_8_9 x_8_9 x_8_9 x_8_9 x_8_9 x_8_9 x_8_9 x_8_9 x_8_9 x_8_9 x_8_9 x_8_9
 x_8_9 x_8_9 x_8_9 x_8_9 x_8_9 x_8_9 x_8_9 x_8_9 x_8_9 x_8_9 x_8_9 x_8_9
 x_8_9 x_8_9 x_8_9 x_8_9 x_8_9 x_8_9 x_8_9 x_8_9 x_8_9 x_8_9 x_8_9 x_8_9
 x_8_9 x_8_9 x_8_9 x_8_9 x_8_9 x_8_9 x_8_9 x_8_9 x_8_9 x_8_9 x_8_9 x_8_9
 x_8_9 x_8_9 x_8_9 x_8_9 x_8_9 x_8_9 x_8_9 x_8_9 x_8_9 x_8_9 x_8_9 x_8_9
 x_8_9 x_8_9 x_8_9 x_8_9 x_8_9 x_8_9 x_8_9 x_8_9 x_8_9 x_8_9 x_8_9 x_8_9
 x_8_9 x_8_9 x_8_9 x_8_9 x_8_9 x_8_9 x_8_9 x_8_9 x_8_9 x_8_9 x_8_9 x_8_9
 x_8_9 x_8_9 x_8_9 x_8_9 x_8_9 x_8_9 x_8_9 x_8_9 x_8_9 x_8_9 x_8_9 x_8_9
 x_8_9 x_8_9 x_8_9 x_8_9 x_8_9 x_8_9 x_8_9 x_8_9 x_8_9 x_8_9 x_8_9 x_8_9
 x_8_9 x_8_9 x_8_9 x_8_9 x_8_9 x_8_9 x_8_9 x_8_9 x_8_9 x_8_9 x_8_9 x_8_9
 x_8_9 x_8_9 x_8_9 x_8_9 x_8_9 x_8_9 x_8_9 x_8_9 x_8_9 x_8_9 x_8_9 x_8_9
 x_8_9 x_8_9 x_8_9 x_8_9 x_8_9 x_8_9 x_8_9 x_8_9 x_8_9 x_8_9 x_8_9 x_8_9
 x_8_9 x_8_9 x_8_9 x_8_9 x_8_9 x_8_9 x_8_9 x_8_9 x_8_9 x_8_9 x_8_9 x_8_9
 x_8_9 x_8_9 x_8_9 x_8_9 x_8_9 x_8_9 x_8_9 x_8_9 x_8_9 x_8_9 x_8_9 x_8_9
End
